Name: EasyAcademy2
Courses: 54
Rooms: 13
Days: 5
Periods_per_day: 10
Curricula: 22
Min_Max_Daily_Lectures: 4 8
UnavailabilityConstraints: 919
RoomConstraints: 129

COURSES:
c4324 t259 4 2 10 1
c4325 t265 4 2 170 1
c4326 t264 2 1 170 1
c4327 no_teacher1 2 1 170 1
c4328 t266 4 2 170 1
c4329 t270 5 2 170 1
c4330 t271 5 2 170 1
c4331 t273 6 2 60 1
c4332 t271 6 2 60 1
c4333 t272 4 2 30 1
c4334 t277 5 2 20 1
c4335 t279 5 2 20 1
c4336 t315 5 2 150 1
c4337 t275 4 2 50 1
c4338 t274 4 2 20 1
c4339 t262 5 2 20 1
c4340 t255 4 2 260 1
c4341 no_teacher2 2 1 54 1
c4342 no_teacher3 2 1 54 1
c4343 t284 6 3 170 1
c4344 t285 6 3 170 1
c4345 t275 5 2 20 1
c4346 t289 5 2 20 1
c4347 t291 4 2 10 1
c4348 t284 5 2 20 1
c4349 t288 5 2 20 1
c4350 t289 5 2 110 1
c4351 t263 3 1 110 1
c4352 t277 5 2 110 1
c4353 t263 3 1 110 1
c4354 no_teacher4 3 1 110 1
c4355 t286 5 2 110 1
c4356 no_teacher5 3 1 110 1
c4357 t294 5 2 110 1
c4358 t285 4 2 10 1
c4359 t298 6 3 110 1
c4360 t299 4 2 30 1
c4361 t301 4 2 20 1
c4362 t284 4 2 50 1
c4363 t294 6 2 60 1
c4364 t270 5 2 20 1
c4365 t296 5 2 20 1
c4366 t302 5 2 170 1
cU1 no_teacher6 12 4 85 1
c4369 t303 5 2 170 1
c4372 t282 4 2 70 1
c4373 t304 4 2 110 1
c4374 t305 4 2 110 1
c4375 t308 5 2 20 1
c4376 t271 4 2 30 1
c4377 t309 4 2 150 1
c4378 t258 6 2 60 1
c4379 no_teacher7 2 1 70 1
c4380 no_teacher8 2 1 70 1

ROOMS:
r134 116 0
r137 22 1
r138 60 1
r139 60 1
r135 97 1
r136 144 1
r140 185 2
r141 194 2
r145 97 3
r142 100 4
r143 92 4
r144 92 4
r150 286 4

CURRICULA:
cu368 8 c4340 c4341 c4342 c4350 c4351 c4354 c4355 c4373
cu369 6 c4350 c4351 c4354 c4355 c4359 c4373
cu370 8 c4340 c4341 c4342 c4352 c4353 c4356 c4357 c4374
cu371 6 c4352 c4353 c4356 c4357 c4359 c4374
cu372A1 9 c4336 c4337 c4338 c4340 c4379 c4380 c4347 c4358 c4360
cu372A2 9 c4336 c4337 c4338 c4340 c4324 c4333 c4347 c4358 c4360
cu372B1 9 c4336 c4337 c4338 c4340 c4379 c4380 c4361 c4362 c4376
cu372B2 9 c4336 c4337 c4338 c4340 c4324 c4333 c4361 c4362 c4376
cu373A1 9 c4336 c4337 c4340 c4372 c4379 c4380 c4347 c4358 c4360
cu373A2 9 c4336 c4337 c4340 c4372 c4324 c4333 c4347 c4358 c4360
cu373B1 9 c4336 c4337 c4340 c4372 c4379 c4380 c4361 c4362 c4376
cu373B2 9 c4336 c4337 c4340 c4372 c4324 c4333 c4361 c4362 c4376
cu374 4 c4331 c4332 c4363 c4378
cu375 10 c4334 c4335 c4339 c4345 c4346 c4348 c4349 c4364 c4365 c4375
cu376 6 cU1 c4325 c4326 c4329 c4343 c4366
cu377 6 cU1 c4327 c4328 c4330 c4344 c4369
cu378A1 10 c4340 c4358 c4361 c4362 c4377 c4379 c4380 c4337 c4338 c4347
cu378A2 10 c4340 c4358 c4361 c4362 c4377 c4324 c4333 c4337 c4338 c4347
cu378B1 10 c4340 c4358 c4361 c4362 c4377 c4379 c4380 c4360 c4372 c4376
cu378B2 10 c4340 c4358 c4361 c4362 c4377 c4324 c4333 c4360 c4372 c4376
cu378C1 9 c4340 c4358 c4361 c4362 c4377 c4338 c4347 c4360 c4372 
cu378C2 9 c4340 c4358 c4361 c4379 c4337 c4338 c4347 c4360 c4372 

UNAVAILABILITY_CONSTRAINTS:
c4324 0 0
c4324 0 3
c4324 0 8
c4324 0 9
c4324 1 0
c4324 1 8
c4324 1 9
c4324 2 0
c4324 2 8
c4324 2 9
c4324 3 0
c4324 3 1
c4324 3 8
c4324 3 9
c4324 4 0
c4324 4 5
c4324 4 6
c4324 4 7
c4324 4 8
c4324 4 9
c4325 0 5
c4325 0 6
c4325 0 7
c4325 0 8
c4325 0 9
c4325 1 5
c4325 1 6
c4325 1 7
c4325 1 8
c4325 1 9
c4325 2 5
c4325 2 6
c4325 2 7
c4325 2 8
c4325 2 9
c4325 3 5
c4325 3 6
c4325 3 7
c4325 3 8
c4325 3 9
c4325 4 5
c4325 4 6
c4325 4 7
c4325 4 8
c4325 4 9
c4326 0 0
c4326 0 1
c4326 0 2
c4326 0 3
c4326 0 4
c4326 0 5
c4326 0 6
c4326 0 7
c4326 0 8
c4326 0 9
c4326 1 0
c4326 1 1
c4326 1 2
c4326 1 3
c4326 1 4
c4326 1 5
c4326 1 6
c4326 1 7
c4326 1 8
c4326 1 9
c4326 2 0
c4326 2 1
c4326 2 2
c4326 2 3
c4326 2 4
c4326 2 5
c4326 2 6
c4326 2 7
c4326 2 8
c4326 2 9
c4326 3 0
c4326 3 1
c4326 3 2
c4326 3 3
c4326 3 4
c4326 3 5
c4326 3 6
c4326 3 7
c4326 3 8
c4326 3 9
c4326 4 4
c4326 4 5
c4326 4 6
c4326 4 7
c4326 4 8
c4326 4 9
c4327 0 0
c4327 0 1
c4327 0 2
c4327 0 3
c4327 0 4
c4327 0 5
c4327 0 6
c4327 0 7
c4327 0 8
c4327 0 9
c4327 1 0
c4327 1 1
c4327 1 2
c4327 1 3
c4327 1 4
c4327 1 5
c4327 1 6
c4327 1 7
c4327 1 8
c4327 1 9
c4327 2 0
c4327 2 1
c4327 2 2
c4327 2 3
c4327 2 4
c4327 2 5
c4327 2 6
c4327 2 7
c4327 2 8
c4327 2 9
c4327 3 2
c4327 3 3
c4327 3 4
c4327 3 5
c4327 3 6
c4327 3 7
c4327 3 8
c4327 3 9
c4327 4 0
c4327 4 1
c4327 4 2
c4327 4 3
c4327 4 4
c4327 4 5
c4327 4 6
c4327 4 7
c4327 4 8
c4327 4 9
c4328 0 5
c4328 0 6
c4328 0 7
c4328 0 8
c4328 0 9
c4328 1 1
c4328 1 2
c4328 1 3
c4328 1 4
c4328 1 5
c4328 1 6
c4328 1 7
c4328 1 8
c4328 1 9
c4328 2 5
c4328 2 6
c4328 2 7
c4328 2 8
c4328 2 9
c4328 3 2
c4328 3 3
c4328 3 4
c4328 3 5
c4328 3 6
c4328 3 7
c4328 3 8
c4328 3 9
c4328 4 5
c4328 4 6
c4328 4 7
c4328 4 8
c4328 4 9
c4329 0 5
c4329 0 6
c4329 0 7
c4329 0 8
c4329 0 9
c4329 1 5
c4329 1 6
c4329 1 7
c4329 1 8
c4329 1 9
c4329 2 5
c4329 2 6
c4329 2 7
c4329 2 8
c4329 2 9
c4329 3 5
c4329 3 6
c4329 3 7
c4329 3 8
c4329 3 9
c4329 4 5
c4329 4 6
c4329 4 7
c4329 4 8
c4329 4 9
c4330 0 5
c4330 0 6
c4330 0 7
c4330 0 8
c4330 0 9
c4330 1 5
c4330 1 6
c4330 1 7
c4330 1 8
c4330 1 9
c4330 2 5
c4330 2 6
c4330 2 7
c4330 2 8
c4330 2 9
c4330 3 5
c4330 3 6
c4330 3 7
c4330 3 8
c4330 3 9
c4330 4 5
c4330 4 6
c4330 4 7
c4330 4 8
c4330 4 9
c4332 2 5
c4332 2 6
c4332 2 7
c4332 2 8
c4332 2 9
c4336 0 0
c4336 0 1
c4336 0 5
c4336 0 6
c4336 0 7
c4336 0 8
c4336 0 9
c4336 1 0
c4336 1 3
c4336 1 4
c4336 1 5
c4336 1 6
c4336 1 7
c4336 1 8
c4336 1 9
c4336 2 0
c4336 2 1
c4336 2 2
c4336 2 3
c4336 2 4
c4336 2 5
c4336 2 6
c4336 2 7
c4336 2 8
c4336 2 9
c4336 3 0
c4336 3 1
c4336 3 2
c4336 3 3
c4336 3 4
c4336 3 5
c4336 3 6
c4336 3 7
c4336 3 8
c4336 3 9
c4336 4 0
c4336 4 1
c4336 4 2
c4336 4 3
c4336 4 4
c4336 4 5
c4336 4 6
c4336 4 7
c4336 4 8
c4336 4 9
c4337 4 5
c4337 4 6
c4337 4 7
c4337 4 8
c4337 4 9
c4339 0 0
c4339 0 1
c4339 0 2
c4339 0 3
c4339 0 4
c4339 0 5
c4339 1 0
c4339 2 0
c4339 3 0
c4339 4 0
c4339 4 1
c4339 4 2
c4339 4 3
c4339 4 4
c4339 4 5
c4339 4 6
c4339 4 7
c4339 4 8
c4339 4 9
c4340 0 0
c4340 0 1
c4340 0 2
c4340 0 3
c4340 0 4
c4340 1 0
c4340 1 1
c4340 1 2
c4340 1 3
c4340 1 4
c4340 2 0
c4340 2 1
c4340 2 2
c4340 2 3
c4340 2 4
c4340 2 5
c4340 2 6
c4340 2 7
c4340 2 8
c4340 2 9
c4340 3 0
c4340 3 1
c4340 3 2
c4340 3 3
c4340 3 4
c4340 3 5
c4340 3 6
c4340 3 7
c4340 3 8
c4340 3 9
c4340 4 0
c4340 4 1
c4340 4 2
c4340 4 3
c4340 4 4
c4340 4 5
c4340 4 6
c4340 4 7
c4340 4 8
c4340 4 9
c4343 0 0
c4343 0 1
c4343 0 2
c4343 0 3
c4343 0 4
c4343 0 5
c4343 0 6
c4343 0 7
c4343 0 8
c4343 0 9
c4343 1 5
c4343 1 6
c4343 1 7
c4343 1 8
c4343 1 9
c4343 2 5
c4343 2 6
c4343 2 7
c4343 2 8
c4343 2 9
c4343 3 5
c4343 3 6
c4343 3 7
c4343 3 8
c4343 3 9
c4343 4 5
c4343 4 6
c4343 4 7
c4343 4 8
c4343 4 9
c4344 0 5
c4344 0 6
c4344 0 7
c4344 0 8
c4344 0 9
c4344 1 5
c4344 1 6
c4344 1 7
c4344 1 8
c4344 1 9
c4344 2 3
c4344 2 4
c4344 2 5
c4344 2 6
c4344 2 7
c4344 2 8
c4344 2 9
c4344 3 3
c4344 3 4
c4344 3 5
c4344 3 6
c4344 3 7
c4344 3 8
c4344 3 9
c4344 4 0
c4344 4 1
c4344 4 2
c4344 4 3
c4344 4 4
c4344 4 5
c4344 4 6
c4344 4 7
c4344 4 8
c4344 4 9
c4345 1 6
c4345 1 7
c4345 2 6
c4345 2 7
c4345 2 8
c4345 2 9
c4345 3 6
c4345 3 7
c4345 3 8
c4345 3 9
c4345 4 4
c4345 4 5
c4345 4 6
c4345 4 7
c4345 4 8
c4345 4 9
c4346 1 6
c4346 1 7
c4346 2 0
c4346 2 1
c4346 2 2
c4346 2 3
c4346 2 4
c4346 2 5
c4346 2 6
c4346 2 7
c4346 2 8
c4346 2 9
c4346 3 0
c4346 3 1
c4346 3 2
c4346 3 3
c4346 3 4
c4346 3 5
c4346 3 6
c4346 3 7
c4346 3 8
c4346 3 9
c4346 4 4
c4346 4 5
c4347 0 0
c4347 1 0
c4347 2 0
c4347 3 0
c4347 3 6
c4347 3 7
c4347 4 0
c4347 4 1
c4347 4 2
c4348 0 0
c4348 0 1
c4348 0 2
c4348 0 3
c4348 0 4
c4348 0 5
c4348 0 6
c4348 0 7
c4348 0 8
c4348 0 9
c4348 1 6
c4348 1 7
c4348 2 6
c4348 2 7
c4348 2 8
c4348 2 9
c4348 3 6
c4348 3 7
c4348 3 8
c4348 3 9
c4348 4 4
c4348 4 5
c4348 4 6
c4348 4 7
c4348 4 8
c4348 4 9
c4349 0 0
c4349 0 1
c4349 0 2
c4349 0 3
c4349 0 4
c4349 0 5
c4349 0 6
c4349 0 7
c4349 0 8
c4349 0 9
c4349 1 6
c4349 1 7
c4349 2 6
c4349 2 7
c4349 2 8
c4349 2 9
c4349 3 6
c4349 3 7
c4349 3 8
c4349 3 9
c4349 4 0
c4349 4 1
c4349 4 2
c4349 4 3
c4349 4 4
c4349 4 5
c4349 4 6
c4349 4 7
c4349 4 8
c4349 4 9
c4350 0 5
c4350 0 6
c4350 0 7
c4350 0 8
c4350 0 9
c4350 1 5
c4350 1 6
c4350 1 7
c4350 1 8
c4350 1 9
c4350 2 0
c4350 2 1
c4350 2 2
c4350 2 3
c4350 2 4
c4350 2 5
c4350 2 6
c4350 2 7
c4350 2 8
c4350 2 9
c4350 3 0
c4350 3 1
c4350 3 2
c4350 3 3
c4350 3 4
c4350 3 5
c4350 3 6
c4350 3 7
c4350 3 8
c4350 3 9
c4350 4 5
c4350 4 6
c4350 4 7
c4350 4 8
c4350 4 9
c4351 0 0
c4351 0 1
c4351 0 2
c4351 0 3
c4351 0 4
c4351 1 0
c4351 1 1
c4351 1 2
c4351 1 3
c4351 1 4
c4351 2 0
c4351 2 1
c4351 2 2
c4351 2 3
c4351 2 4
c4351 3 0
c4351 3 1
c4351 3 2
c4351 3 3
c4351 3 4
c4351 4 0
c4351 4 1
c4351 4 2
c4351 4 3
c4351 4 4
c4352 0 5
c4352 0 6
c4352 0 7
c4352 0 8
c4352 0 9
c4352 1 5
c4352 1 6
c4352 1 7
c4352 1 8
c4352 1 9
c4352 2 5
c4352 2 6
c4352 2 7
c4352 2 8
c4352 2 9
c4352 3 5
c4352 3 6
c4352 3 7
c4352 3 8
c4352 3 9
c4352 4 5
c4352 4 6
c4352 4 7
c4352 4 8
c4352 4 9
c4353 0 0
c4353 0 1
c4353 0 2
c4353 0 3
c4353 0 4
c4353 1 0
c4353 1 1
c4353 1 2
c4353 1 3
c4353 1 4
c4353 2 0
c4353 2 1
c4353 2 2
c4353 2 3
c4353 2 4
c4353 3 0
c4353 3 1
c4353 3 2
c4353 3 3
c4353 3 4
c4353 4 0
c4353 4 1
c4353 4 2
c4353 4 3
c4353 4 4
c4354 0 0
c4354 0 1
c4354 0 2
c4354 0 3
c4354 0 4
c4354 1 0
c4354 1 1
c4354 1 2
c4354 1 3
c4354 1 4
c4354 2 0
c4354 2 1
c4354 2 2
c4354 2 3
c4354 2 4
c4354 3 0
c4354 3 1
c4354 3 2
c4354 3 3
c4354 3 4
c4354 4 0
c4354 4 1
c4354 4 2
c4354 4 3
c4354 4 4
c4355 0 0
c4355 0 1
c4355 0 2
c4355 0 3
c4355 0 4
c4355 0 5
c4355 0 6
c4355 0 7
c4355 0 8
c4355 0 9
c4355 1 5
c4355 1 6
c4355 1 7
c4355 1 8
c4355 1 9
c4355 2 5
c4355 2 6
c4355 2 7
c4355 2 8
c4355 2 9
c4355 3 5
c4355 3 6
c4355 3 7
c4355 3 8
c4355 3 9
c4355 4 5
c4355 4 6
c4355 4 7
c4355 4 8
c4355 4 9
c4356 0 0
c4356 0 1
c4356 0 2
c4356 0 3
c4356 0 4
c4356 1 0
c4356 1 1
c4356 1 2
c4356 1 3
c4356 1 4
c4356 2 0
c4356 2 1
c4356 2 2
c4356 2 3
c4356 2 4
c4356 3 0
c4356 3 1
c4356 3 2
c4356 3 3
c4356 3 4
c4356 4 0
c4356 4 1
c4356 4 2
c4356 4 3
c4356 4 4
c4357 0 0
c4357 0 1
c4357 0 2
c4357 0 3
c4357 0 4
c4357 0 5
c4357 0 6
c4357 0 7
c4357 0 8
c4357 0 9
c4357 1 5
c4357 1 6
c4357 1 7
c4357 1 8
c4357 1 9
c4357 2 5
c4357 2 6
c4357 2 7
c4357 2 8
c4357 2 9
c4357 3 5
c4357 3 6
c4357 3 7
c4357 3 8
c4357 3 9
c4357 4 5
c4357 4 6
c4357 4 7
c4357 4 8
c4357 4 9
c4358 2 3
c4358 2 4
c4358 3 3
c4358 3 4
c4358 4 0
c4358 4 1
c4358 4 2
c4358 4 3
c4358 4 4
c4358 4 5
c4359 0 0
c4359 0 5
c4359 0 6
c4359 0 7
c4359 0 8
c4359 0 9
c4359 1 0
c4359 1 4
c4359 1 5
c4359 1 6
c4359 1 7
c4359 1 8
c4359 1 9
c4359 2 0
c4359 2 4
c4359 2 5
c4359 2 6
c4359 2 7
c4359 2 8
c4359 2 9
c4359 3 0
c4359 3 1
c4359 3 2
c4359 3 5
c4359 3 6
c4359 3 7
c4359 3 8
c4359 3 9
c4359 4 0
c4359 4 1
c4359 4 5
c4359 4 6
c4359 4 7
c4359 4 8
c4359 4 9
c4362 0 0
c4362 0 1
c4362 0 2
c4362 0 3
c4362 0 4
c4362 0 5
c4362 0 6
c4362 0 7
c4362 0 8
c4362 0 9
c4362 4 6
c4362 4 7
c4362 4 8
c4362 4 9
c4363 0 0
c4363 0 1
c4363 0 2
c4363 0 3
c4363 0 4
c4366 0 0
c4366 0 1
c4366 0 2
c4366 0 3
c4366 0 5
c4366 0 6
c4366 0 7
c4366 0 8
c4366 0 9
c4366 1 5
c4366 1 6
c4366 1 7
c4366 1 8
c4366 1 9
c4366 2 5
c4366 2 6
c4366 2 7
c4366 2 8
c4366 2 9
c4366 3 5
c4366 3 6
c4366 3 7
c4366 3 8
c4366 3 9
c4366 4 5
c4366 4 6
c4366 4 7
c4366 4 8
c4366 4 9
c4369 0 5
c4369 0 6
c4369 0 7
c4369 0 8
c4369 0 9
c4369 1 5
c4369 1 6
c4369 1 7
c4369 1 8
c4369 1 9
c4369 2 5
c4369 2 6
c4369 2 7
c4369 2 8
c4369 2 9
c4369 3 5
c4369 3 6
c4369 3 7
c4369 3 8
c4369 3 9
c4369 4 5
c4369 4 6
c4369 4 7
c4369 4 8
c4369 4 9
c4372 0 0
c4372 1 0
c4372 2 0
c4372 3 0
c4372 4 0
c4373 0 0
c4373 0 5
c4373 0 6
c4373 0 7
c4373 0 8
c4373 0 9
c4373 1 0
c4373 1 5
c4373 1 6
c4373 1 7
c4373 1 8
c4373 1 9
c4373 2 0
c4373 2 5
c4373 2 6
c4373 2 7
c4373 2 8
c4373 2 9
c4373 3 0
c4373 3 5
c4373 3 6
c4373 3 7
c4373 3 8
c4373 3 9
c4373 4 0
c4373 4 5
c4373 4 6
c4373 4 7
c4373 4 8
c4373 4 9
c4374 0 5
c4374 0 6
c4374 0 7
c4374 0 8
c4374 0 9
c4374 1 5
c4374 1 6
c4374 1 7
c4374 1 8
c4374 1 9
c4374 2 5
c4374 2 6
c4374 2 7
c4374 2 8
c4374 2 9
c4374 3 5
c4374 3 6
c4374 3 7
c4374 3 8
c4374 3 9
c4374 4 5
c4374 4 6
c4374 4 7
c4374 4 8
c4374 4 9
c4375 1 6
c4375 1 7
c4375 2 6
c4375 2 7
c4375 2 8
c4375 2 9
c4375 3 6
c4375 3 7
c4375 3 8
c4375 3 9
c4375 4 4
c4375 4 5
c4376 2 5
c4376 2 6
c4376 2 7
c4376 2 8
c4376 2 9

ROOM_CONSTRAINTS:
c4324 r137
c4324 r138
c4324 r139
c4331 r134
c4331 r140
c4331 r141
c4332 r134
c4332 r140
c4332 r141
c4333 r137
c4333 r138
c4333 r139
c4334 r134
c4334 r140
c4334 r141
c4335 r134
c4335 r140
c4335 r141
c4336 r137
c4336 r138
c4336 r139
c4337 r137
c4337 r138
c4337 r139
c4338 r137
c4338 r138
c4338 r139
c4339 r134
c4339 r140
c4339 r141
c4340 r137
c4340 r138
c4340 r139
c4341 r137
c4341 r138
c4341 r139
c4342 r137
c4342 r138
c4342 r139
c4345 r134
c4345 r140
c4345 r141
c4346 r134
c4346 r140
c4346 r141
c4347 r137
c4347 r138
c4347 r139
c4348 r134
c4348 r140
c4348 r141
c4349 r134
c4349 r140
c4349 r141
c4350 r137
c4350 r138
c4350 r139
c4351 r137
c4351 r138
c4351 r139
c4352 r137
c4352 r138
c4352 r139
c4353 r137
c4353 r138
c4353 r139
c4354 r137
c4354 r138
c4354 r139
c4355 r137
c4355 r138
c4355 r139
c4356 r137
c4356 r138
c4356 r139
c4357 r137
c4357 r138
c4357 r139
c4358 r137
c4358 r138
c4358 r139
c4359 r137
c4359 r138
c4359 r139
c4360 r137
c4360 r138
c4360 r139
c4361 r137
c4361 r138
c4361 r139
c4362 r137
c4362 r138
c4362 r139
c4363 r134
c4363 r140
c4363 r141
c4364 r134
c4364 r140
c4364 r141
c4365 r134
c4365 r140
c4365 r141
c4372 r137
c4372 r138
c4372 r139
c4373 r137
c4373 r138
c4373 r139
c4374 r137
c4374 r138
c4374 r139
c4375 r134
c4375 r140
c4375 r141
c4376 r137
c4376 r138
c4376 r139
c4377 r137
c4377 r138
c4377 r139
c4378 r134
c4378 r140
c4378 r141
c4379 r137
c4379 r138
c4379 r139
c4380 r137
c4380 r138
c4380 r139

END.
